(set-logic ALL)
(declare-fun var0 () String)
(assert (str.in_re var0 (re.++ (re.union (re.+ (str.to_re "000")) (re.+ (str.to_re "111"))) (re.++ (re.* (re.* (str.to_re "22"))) (re.++ (re.union (re.+ (str.to_re "333")) (re.+ (str.to_re "44"))) (re.++ (re.union (re.+ (str.to_re "555")) (re.+ (str.to_re "6"))) (re.++ (re.+ (re.* (str.to_re "777"))) (re.++ (re.+ (re.+ (str.to_re "888"))) (re.++ (re.* (re.union (str.to_re "9") (str.to_re "a"))) (re.++ (re.+ (re.+ (str.to_re "bb"))) (re.++ (re.* (re.+ (str.to_re "c"))) (re.++ (re.+ (re.union (str.to_re "d") (str.to_re "eee"))) (re.++ (re.union (re.* (str.to_re "fff")) (re.* (str.to_re "gg"))) (re.++ (re.union (re.union (str.to_re "h") (str.to_re "ii")) (re.union (str.to_re "jjj") (str.to_re "kk"))) (re.++ (re.* (re.union (str.to_re "lll") (str.to_re "mmm"))) (re.++ (re.* (re.+ (str.to_re "nn"))) (re.++ (re.union (re.+ (str.to_re "oo")) (re.+ (str.to_re "pp"))) (re.++ (re.* (re.* (str.to_re "qq"))) (re.++ (re.* (re.* (str.to_re "rr"))) (re.++ (re.union (re.union (str.to_re "sss") (str.to_re "ttt")) (re.union (str.to_re "uuu") (str.to_re "vv"))) (re.++ (re.union (re.union (str.to_re "ww") (str.to_re "xxx")) (re.union (str.to_re "y") (str.to_re "zzz"))) (re.++ (re.* (re.union (str.to_re "AA") (str.to_re "BBB"))) (re.++ (re.union (re.* (str.to_re "CCC")) (re.* (str.to_re "DDD"))) (re.++ (re.+ (re.* (str.to_re "E"))) (re.++ (re.+ (re.* (str.to_re "FF"))) (re.++ (re.union (re.* (str.to_re "GGG")) (re.* (str.to_re "H"))) (re.++ (re.* (re.+ (str.to_re "II"))) (re.++ (re.* (re.union (str.to_re "JJJ") (str.to_re "K"))) (re.++ (re.* (re.+ (str.to_re "LLL"))) (re.++ (re.+ (re.union (str.to_re "MM") (str.to_re "NN"))) (re.++ (re.+ (re.union (str.to_re "O") (str.to_re "PPP"))) (re.++ (re.* (re.* (str.to_re "QQ"))) (re.++ (re.union (re.* (str.to_re "R")) (re.* (str.to_re "SS"))) (re.++ (re.+ (re.* (str.to_re "T"))) (re.++ (re.* (re.union (str.to_re "U") (str.to_re "V"))) (re.++ (re.union (re.+ (str.to_re "WWW")) (re.+ (str.to_re "X"))) (re.++ (re.union (re.union (str.to_re "YYY") (str.to_re "ZZZ")) (re.union (str.to_re "!!!") (str.to_re """"))) (re.++ (re.+ (re.+ (str.to_re "##"))) (re.++ (re.union (re.union (str.to_re "$$") (str.to_re "%%")) (re.union (str.to_re "&") (str.to_re "'''"))) (re.++ (re.+ (re.+ (str.to_re "("))) (re.++ (re.* (re.+ (str.to_re ")"))) (re.++ (re.+ (re.union (str.to_re "*") (str.to_re "+"))) (re.++ (re.+ (re.* (str.to_re ",,,"))) (re.++ (re.union (re.union (str.to_re "---") (str.to_re ".")) (re.union (str.to_re "//") (str.to_re ":::"))) (re.++ (re.* (re.* (str.to_re ";"))) (re.++ (re.union (re.* (str.to_re "<<<")) (re.* (str.to_re "="))) (re.++ (re.union (re.union (str.to_re ">") (str.to_re "???")) (re.union (str.to_re "@@") (str.to_re "[[["))) (re.++ (re.union (re.* (str.to_re "\\\\\\")) (re.* (str.to_re "]]"))) (re.++ (re.+ (re.+ (str.to_re "^^"))) (re.++ (re.+ (re.union (str.to_re "___") (str.to_re "`"))) (re.++ (re.union (re.+ (str.to_re "{{{")) (re.+ (str.to_re "|||"))) (re.++ (re.+ (re.+ (str.to_re "}}}"))) (re.++ (re.+ (re.+ (str.to_re "~"))) (re.++ (re.+ (re.union (str.to_re "0") (str.to_re "11"))) (re.++ (re.+ (re.+ (str.to_re "222"))) (re.++ (re.* (re.+ (str.to_re "3"))) (re.++ (re.union (re.union (str.to_re "44") (str.to_re "55")) (re.union (str.to_re "66") (str.to_re "7"))) (re.++ (re.+ (re.union (str.to_re "8") (str.to_re "999"))) (re.++ (re.* (re.union (str.to_re "aa") (str.to_re "bbb"))) (re.++ (re.union (re.union (str.to_re "cc") (str.to_re "ddd")) (re.union (str.to_re "ee") (str.to_re "fff"))) (re.++ (re.+ (re.union (str.to_re "gg") (str.to_re "h"))) (re.++ (re.union (re.+ (str.to_re "i")) (re.+ (str.to_re "jjj"))) (re.++ (re.union (re.union (str.to_re "kk") (str.to_re "l")) (re.union (str.to_re "mm") (str.to_re "n"))) (re.++ (re.union (re.+ (str.to_re "ooo")) (re.+ (str.to_re "p"))) (re.++ (re.union (re.* (str.to_re "q")) (re.* (str.to_re "rrr"))) (re.++ (re.+ (re.* (str.to_re "ss"))) (re.++ (re.* (re.union (str.to_re "tt") (str.to_re "uu"))) (re.++ (re.+ (re.* (str.to_re "vvv"))) (re.++ (re.+ (re.union (str.to_re "www") (str.to_re "xxx"))) (re.++ (re.union (re.* (str.to_re "yy")) (re.* (str.to_re "zzz"))) (re.++ (re.* (re.* (str.to_re "AA"))) (re.++ (re.+ (re.union (str.to_re "BBB") (str.to_re "CCC"))) (re.++ (re.+ (re.+ (str.to_re "DD"))) (re.++ (re.union (re.+ (str.to_re "EEE")) (re.+ (str.to_re "FF"))) (re.++ (re.* (re.* (str.to_re "G"))) (re.++ (re.+ (re.* (str.to_re "HHH"))) (re.++ (re.union (re.union (str.to_re "III") (str.to_re "JJ")) (re.union (str.to_re "K") (str.to_re "LL"))) (re.++ (re.union (re.+ (str.to_re "M")) (re.+ (str.to_re "NN"))) (re.++ (re.+ (re.+ (str.to_re "O"))) (re.++ (re.* (re.union (str.to_re "PP") (str.to_re "QQ"))) (re.++ (re.* (re.union (str.to_re "R") (str.to_re "SSS"))) (re.++ (re.+ (re.* (str.to_re "TT"))) (re.++ (re.* (re.* (str.to_re "UU"))) (re.++ (re.+ (re.* (str.to_re "VV"))) (re.++ (re.+ (re.+ (str.to_re "W"))) (re.++ (re.+ (re.+ (str.to_re "XX"))) (re.+ (re.union (str.to_re "YY") (str.to_re "Z")))))))))))))))))))))))))))))))))))))))))))))))))))))))))))))))))))))))))))))))))))))))))
(check-sat)